
List of user-set options:

                                    Name   Value                used
                           compl_inf_tol = 1                     yes
                         constr_viol_tol = 1                     yes
                            dual_inf_tol = 1000                  yes
                           linear_solver = ma97                  yes
                              ma86_small = 1e-30                  no
                                  ma86_u = 0.0001                 no
                              ma97_order = best                  yes
                              ma97_small = 1e-30                 yes
                            ma97_switch1 = at_start              yes
                            ma97_switch2 = od_hd_reuse           yes
                                  ma97_u = 1e-06                 yes
                               ma97_umax = 0.5                   yes
                                max_iter = 1000                  yes
                    max_refinement_steps = 20                    yes
                    min_refinement_steps = 5                     yes
                                 mu_init = 1e-06                 yes
           mu_superlinear_decrease_power = 1.25                  yes
                   nlp_scaling_min_value = 1e-08                 yes
                        option_file_name = Preset_Case_34_pf.opt  yes
                             output_file = ./tmp/Preset_Case_34_pf.output  yes
                      print_user_options = yes                   yes
        required_infeasibility_reduction = 1                      no
                                     tol = 1e-08                 yes
                   warm_start_bound_frac = 1e-20                 yes
                   warm_start_bound_push = 1e-20                 yes
                   warm_start_init_point = yes                   yes
              warm_start_mult_bound_push = 1e-20                 yes
                warm_start_mult_init_max = 1e+40                 yes
             warm_start_slack_bound_frac = 1e-20                 yes
             warm_start_slack_bound_push = 1e-20                 yes

******************************************************************************
This program contains Ipopt, a library for large-scale nonlinear optimization.
 Ipopt is released as open source code under the Eclipse Public License (EPL).
         For more information visit http://projects.coin-or.org/Ipopt
******************************************************************************

This is Ipopt version 3.12.10, running with linear solver ma97.

Number of nonzeros in equality constraint Jacobian...:   123442
Number of nonzeros in inequality constraint Jacobian.:      213
Number of nonzeros in Lagrangian Hessian.............:    49069

Total number of variables............................:    31591
                     variables with only lower bounds:    12912
                variables with lower and upper bounds:    15130
                     variables with only upper bounds:        0
Total number of equality constraints.................:    31483
Total number of inequality constraints...............:       25
        inequality constraints with only lower bounds:        4
   inequality constraints with lower and upper bounds:        0
        inequality constraints with only upper bounds:       21

iter    objective    inf_pr   inf_du lg(mu)  ||d||  lg(rg) alpha_du alpha_pr  ls
   0 -5.2576845e+00 4.01e-03 1.02e+00  -6.0 0.00e+00    -  0.00e+00 0.00e+00   0
   1 -5.2572250e+00 1.18e-01 2.03e+00  -6.0 4.67e+05    -  6.65e-05 1.13e-04h  4
   2 -5.2585024e+00 1.18e-01 3.81e+01  -6.0 3.95e+03    -  1.69e-01 1.22e-03h  1
   3 -5.3900427e+00 4.28e+00 2.33e+02  -6.0 3.94e+03    -  1.19e-01 1.26e-01f  1
   4 -5.4902759e+00 8.94e+00 3.53e+02  -6.0 4.66e+03    -  2.02e-01 1.19e-01h  1
   5 -5.6765834e+00 1.93e+01 1.03e+05  -6.0 2.42e+03    -  2.28e-01 3.80e-01h  1
   6 -5.7069741e+00 1.99e+01 1.13e+05  -6.0 4.46e+03    -  1.95e-01 7.96e-02h  1
   7 -5.8064503e+00 1.17e+01 8.96e+03  -6.0 7.12e+02    -  2.68e-01 4.18e-01h  1
   8 -5.8020354e+00 7.72e+00 6.99e+04  -6.0 1.50e+02  -4.0 1.60e-03 3.42e-01h  1
   9 -5.7968979e+00 1.95e+00 2.52e+05  -6.0 5.82e+00  -4.5 4.07e-01 7.47e-01h  1
iter    objective    inf_pr   inf_du lg(mu)  ||d||  lg(rg) alpha_du alpha_pr  ls
  10r-5.7968979e+00 1.95e+00 1.00e+03   0.1 0.00e+00    -  0.00e+00 3.96e-07R  2
  11r-5.7941007e+00 1.95e+00 1.00e+03   0.1 1.14e+04    -  2.63e-06 6.73e-07f  1
  12 -5.8673815e+00 2.26e+00 2.53e+02  -6.0 3.39e+05    -  1.56e-04 1.16e-03f  1
  13 -5.8694502e+00 2.26e+00 2.53e+02  -6.0 2.04e+05    -  7.95e-04 1.30e-04f  1
  14 -5.9133538e+00 2.31e+00 1.33e+04  -6.0 1.60e+05    -  3.93e-04 3.38e-03f  1
  15 -5.9149643e+00 2.31e+00 1.77e+04  -6.0 8.38e+04    -  7.11e-03 3.84e-04h  1
  16 -5.9642873e+00 3.04e+01 1.68e+05  -6.0 7.13e+04    -  1.02e-02 4.95e-02h  1
  17 -6.0035416e+00 3.04e+01 2.55e+05  -6.0 4.38e+04    -  1.11e-05 1.08e-02h  1
  18 -5.9867501e+00 2.29e+01 2.10e+06  -6.0 1.35e+02  -5.0 2.08e-04 2.48e-01h  1
  19 -5.8798121e+00 1.48e-01 2.71e+08  -6.0 2.70e+01  -5.4 3.06e-04 1.00e+00h  1
iter    objective    inf_pr   inf_du lg(mu)  ||d||  lg(rg) alpha_du alpha_pr  ls
  20 -5.8664129e+00 1.17e-01 2.11e+08  -6.0 3.23e+00  -3.2 2.22e-02 2.21e-01h  1
  21 -5.8539544e+00 1.12e-01 1.80e+08  -6.0 1.30e+01  -3.7 5.27e-02 1.44e-01h  1
  22 -5.8583229e+00 1.13e-01 1.70e+08  -6.0 2.33e+01  -4.2 7.16e-02 5.66e-02f  1
  23 -5.8327789e+00 9.01e-02 1.67e+06  -6.0 4.98e+00  -4.6 5.71e-04 1.00e+00h  1
  24 -5.8380054e+00 5.47e-03 3.52e+03  -6.0 8.37e+00  -5.1 2.35e-01 1.00e+00h  1
  25 -5.8471898e+00 2.30e-02 6.71e+01  -6.0 2.07e+01  -5.6 2.36e-01 1.00e+00h  1
  26 -5.8555844e+00 6.58e-02 3.70e+01  -6.0 5.53e+01  -6.1 4.97e-01 2.86e-01h  1
  27 -5.8686304e+00 1.18e-01 1.97e+03  -6.0 1.16e+02  -6.5 1.93e-01 6.44e-01F  1
  28 -5.8738757e+00 8.77e-02 1.15e+03  -6.0 7.54e+00  -4.3 3.84e-01 2.54e-01f  1
  29 -5.8766371e+00 3.57e-02 8.13e+00  -6.0 2.45e+00  -4.8 1.00e+00 1.00e+00h  1
iter    objective    inf_pr   inf_du lg(mu)  ||d||  lg(rg) alpha_du alpha_pr  ls
  30 -5.8774126e+00 1.68e-02 1.39e+03  -6.0 8.85e+00  -5.3 4.15e-01 6.28e-01h  1
  31 -5.8809300e+00 1.76e-02 1.19e+00  -6.0 2.21e+01  -5.7 1.00e+00 1.00e+00h  1
  32 -5.8877811e+00 3.99e-02 1.72e+02  -6.0 5.53e+01  -6.2 1.00e+00 6.92e-01h  1
  33 -5.9077614e+00 2.19e-01 3.17e+01  -6.0 1.17e+02  -6.7 1.00e+00 1.00e+00h  1
  34 -5.9346139e+00 1.60e+00 1.82e+02  -6.0 2.88e+02  -7.2 7.86e-01 8.61e-01h  1
  35 -5.9663516e+00 1.64e+00 1.89e+03  -6.0 4.88e+02  -7.6 6.80e-01 7.17e-01h  1
  36 -5.9690816e+00 1.56e+00 2.10e+04  -6.0 8.92e+02  -8.1 9.27e-02 5.19e-02h  1
  37 -5.9788996e+00 1.56e+00 3.33e+04  -6.0 5.77e+03    -  1.46e-01 5.77e-02h  1
  38 -6.0016203e+00 2.47e+00 1.71e+05  -6.0 2.60e+03    -  8.17e-01 2.09e-01h  1
  39r-6.0016203e+00 2.47e+00 1.00e+03   0.0 0.00e+00  -6.8 0.00e+00 2.72e-07R  5
iter    objective    inf_pr   inf_du lg(mu)  ||d||  lg(rg) alpha_du alpha_pr  ls
  40r-6.0272092e+00 2.47e+00 1.00e+03   0.0 3.03e+05    -  7.48e-07 9.79e-07f  1
  41 -6.0203265e+00 2.10e+00 8.61e+01  -6.0 2.44e+01    -  1.78e-01 1.47e-01h  1
  42 -5.9999252e+00 7.66e-01 3.08e+02  -6.0 1.13e+01    -  1.53e-01 6.36e-01h  1
  43 -6.0006155e+00 4.12e-01 1.67e+02  -6.0 1.07e+00    -  7.94e-01 4.61e-01h  1
  44 -6.0069669e+00 3.12e-01 1.26e+02  -6.0 1.68e+00    -  9.25e-01 2.42e-01h  1
  45 -5.9950151e+00 1.24e-03 1.41e+01  -6.0 3.84e+00    -  8.42e-01 1.00e+00h  1
  46 -5.9966755e+00 1.81e-02 1.09e+00  -6.0 2.48e+01    -  9.65e-01 1.00e+00h  1
  47 -6.0084471e+00 1.36e+00 2.11e+01  -6.0 2.21e+02  -7.3 8.87e-01 9.76e-01h  1
  48 -6.0391348e+00 4.87e+00 1.17e+04  -6.0 4.06e+03    -  4.44e-01 5.10e-01H  1
  49 -6.0440177e+00 4.38e+00 1.05e+04  -6.0 1.33e+03  -7.7 1.54e-01 9.84e-02h  1
iter    objective    inf_pr   inf_du lg(mu)  ||d||  lg(rg) alpha_du alpha_pr  ls
  50 -6.0499582e+00 3.69e+00 2.88e+04  -6.0 9.10e+02    -  3.78e-01 1.75e-01h  1
  51 -6.0615867e+00 1.51e+01 2.91e+04  -6.0 6.94e+03  -8.2 6.04e-02 4.02e-02h  1
  52 -6.0979902e+00 3.73e+00 7.37e+03  -6.0 1.05e+03    -  8.06e-01 7.89e-01h  1
  53 -6.0982167e+00 3.70e+00 1.92e+05  -6.0 2.01e+03    -  2.08e-05 1.26e-02h  1
  54 -6.1104180e+00 3.16e+00 4.46e+04  -6.0 1.25e+03    -  5.88e-01 3.94e-01h  1
  55 -6.1200807e+00 1.15e+00 2.25e+05  -6.0 6.86e+02    -  4.20e-01 7.51e-01h  1
  56 -6.1204671e+00 1.14e+00 1.51e+07  -6.0 3.65e+02  -4.2 3.89e-04 9.04e-03h  1
  57 -6.1198963e+00 1.13e+00 1.47e+07  -6.0 4.21e+02  -4.7 5.48e-04 4.59e-03h  1
  58 -6.1164422e+00 2.13e-01 5.63e+06  -6.0 2.51e+02    -  7.29e-03 9.96e-01h  1
  59 -6.1160855e+00 3.44e-02 1.47e+03  -6.0 9.53e+01    -  5.39e-01 1.00e+00h  1
iter    objective    inf_pr   inf_du lg(mu)  ||d||  lg(rg) alpha_du alpha_pr  ls
  60 -6.1164926e+00 3.26e-02 1.07e+04  -6.0 2.25e+02    -  7.95e-01 6.50e-02h  1
  61 -6.1177314e+00 3.38e-02 9.04e+03  -6.0 1.59e+02    -  6.49e-01 2.49e-01h  1
  62 -6.1219693e+00 1.28e-01 7.75e+01  -6.0 1.64e+02    -  1.00e+00 1.00e+00h  1
  63 -6.1235573e+00 9.16e-02 1.13e+04  -6.0 2.06e+02    -  4.22e-01 2.85e-01h  1
  64 -6.1299183e+00 7.14e-02 1.33e+03  -6.0 2.16e+02    -  1.00e+00 1.00e+00h  1
  65 -6.1329540e+00 6.46e-02 3.54e+04  -6.0 2.93e+02    -  3.30e-01 2.64e-01h  1
  66 -6.1396092e+00 9.34e-02 5.39e+05  -6.0 3.52e+02    -  1.00e+00 4.68e-01h  1
  67r-6.1396092e+00 9.34e-02 1.00e+03  -1.2 0.00e+00    -  0.00e+00 2.44e-07R  2
  68r-6.1409373e+00 9.17e-02 1.00e+03  -1.2 4.31e+03    -  3.61e-05 1.82e-05f  1
  69 -6.1408131e+00 7.95e-02 5.89e+05  -6.0 2.67e-01    -  4.98e-01 1.32e-01h  1
iter    objective    inf_pr   inf_du lg(mu)  ||d||  lg(rg) alpha_du alpha_pr  ls
  70 -6.1406724e+00 3.41e-02 2.92e+06  -6.0 4.68e-01    -  1.32e-01 5.72e-01h  1
  71 -6.1411572e+00 1.07e-04 2.36e+01  -6.0 4.52e-01    -  8.81e-01 1.00e+00h  1
  72 -6.1466694e+00 3.36e-03 1.40e+01  -6.0 2.24e+00    -  7.30e-01 1.00e+00h  1
  73 -6.1496660e+00 3.68e-03 6.98e+00  -6.0 4.56e+00    -  6.68e-01 9.64e-01h  1
  74 -6.1483065e+00 9.91e-04 7.59e+01  -6.0 7.00e+00    -  7.77e-01 1.00e+00h  1
  75 -6.1496001e+00 2.73e-03 2.40e+01  -6.0 1.57e+01    -  9.70e-01 7.60e-01h  1
  76 -6.1501724e+00 7.56e-02 4.49e+00  -6.0 1.31e+02    -  9.65e-01 1.00e+00f  1
  77 -6.1505882e+00 6.67e-02 3.92e+00  -6.0 2.10e+02    -  9.40e-01 1.00e+00h  1
  78 -6.1502544e+00 2.89e-03 1.61e-01  -6.0 7.13e+01    -  1.00e+00 1.00e+00h  1
  79 -6.1503098e+00 1.51e-04 1.36e-02  -6.0 3.72e-01  -4.2 1.00e+00 1.00e+00h  1
iter    objective    inf_pr   inf_du lg(mu)  ||d||  lg(rg) alpha_du alpha_pr  ls
  80 -6.1505634e+00 4.86e-03 3.06e+00  -6.0 1.16e+01  -4.7 1.29e-01 1.69e-01h  1
  81 -6.1504722e+00 4.80e-03 3.57e+02  -6.0 3.72e+02    -  6.32e-05 1.91e-02h  1
  82 -6.1504800e+00 4.80e-03 3.57e+02  -6.0 2.20e+03  -4.3 3.72e-03 5.74e-05f  4
  83 -6.1511850e+00 4.12e-04 2.09e+00  -6.0 6.64e-01  -3.9 9.69e-01 1.00e+00h  1
  84 -6.1526154e+00 5.09e-03 7.62e+00  -6.0 7.56e+00  -4.3 2.46e-01 2.78e-01h  1
  85 -6.1534295e+00 4.45e-03 6.73e+04  -6.0 5.42e+02    -  1.00e+00 1.22e-01h  1
  86 -6.1583766e+00 1.00e-01 1.22e+04  -6.0 5.16e+02    -  5.53e-01 7.34e-01h  1
  87 -6.1648815e+00 4.87e-02 2.10e+04  -6.0 3.13e+02    -  1.00e+00 9.20e-01h  1
  88r-6.1648815e+00 4.87e-02 1.00e+03  -1.5 0.00e+00    -  0.00e+00 3.34e-07R  4
  89r-6.1646197e+00 4.71e-02 1.00e+03  -1.5 3.20e+03    -  7.23e-05 3.41e-05f  1
iter    objective    inf_pr   inf_du lg(mu)  ||d||  lg(rg) alpha_du alpha_pr  ls
  90 -6.1646051e+00 4.04e-02 1.06e+06  -6.0 2.27e-01    -  7.98e-01 1.42e-01h  1
  91 -6.1653713e+00 1.72e-02 4.36e+06  -6.0 8.39e-01    -  1.42e-01 5.74e-01h  1
  92 -6.1665765e+00 3.43e-04 5.94e+01  -6.0 8.24e-01    -  8.24e-01 1.00e+00h  1
  93 -6.1697909e+00 2.87e-03 3.30e+01  -6.0 2.17e+00    -  3.62e-01 1.00e+00h  1
  94 -6.1698236e+00 7.14e-04 1.90e+00  -6.0 1.81e+00    -  9.51e-01 1.00e+00h  1
  95 -6.1698111e+00 4.15e-03 3.37e-01  -6.0 1.54e+01    -  9.88e-01 1.00e+00h  1
  96 -6.1701243e+00 1.16e-02 1.01e+00  -6.0 1.51e+02    -  9.60e-01 7.10e-01h  1
  97 -6.1702277e+00 5.09e-03 1.82e+00  -6.0 1.38e+02    -  9.76e-01 1.00e+00f  1
  98 -6.1701114e+00 1.72e-04 1.17e-02  -6.0 4.74e+00    -  1.00e+00 1.00e+00h  1
  99 -6.1701114e+00 3.67e-07 2.44e-05  -6.0 2.24e-01    -  1.00e+00 1.00e+00h  1
iter    objective    inf_pr   inf_du lg(mu)  ||d||  lg(rg) alpha_du alpha_pr  ls
 100 -6.1701114e+00 2.84e-10 2.47e-10  -6.0 7.10e-04    -  1.00e+00 1.00e+00h  1
 101 -6.1701809e+00 9.35e-04 4.89e+01  -7.5 4.35e+01    -  9.57e-01 7.88e-01h  1
 102 -6.1701845e+00 1.82e-04 8.65e+00  -7.5 9.76e+00    -  1.00e+00 8.59e-01h  1
 103 -6.1701842e+00 1.31e-06 2.44e-03  -7.5 1.38e+00    -  1.00e+00 1.00e+00h  1
 104 -6.1701842e+00 2.85e-10 3.82e-10  -7.5 2.38e-04    -  1.00e+00 1.00e+00h  1
 105 -6.1701857e+00 1.08e-06 6.75e-01  -9.0 1.41e+00    -  9.19e-01 8.46e-01h  1
 106 -6.1701860e+00 3.61e-08 6.67e-05  -9.0 2.19e-01    -  1.00e+00 1.00e+00f  1
 107 -6.1701860e+00 2.85e-10 2.29e-08  -9.0 1.02e-04    -  1.00e+00 1.00e+00h  1
 108 -6.1701860e+00 2.85e-10 1.69e-09  -9.0 3.42e-05    -  1.00e+00 1.00e+00h  1

Number of Iterations....: 108

                                   (scaled)                 (unscaled)
Objective...............:  -4.8204578183435345e+00   -6.1701860074797246e+00
Dual infeasibility......:   1.6902373240015075e-09    2.1635037747219298e-09
Constraint violation....:   2.8531068414945626e-10    2.8531068414945626e-10
Complementarity.........:   9.4231542256493175e-10    1.2061637408831127e-09
Overall NLP error.......:   1.6902373240015075e-09    2.1635037747219298e-09


Number of objective function evaluations             = 133
Number of objective gradient evaluations             = 109
Number of equality constraint evaluations            = 133
Number of inequality constraint evaluations          = 133
Number of equality constraint Jacobian evaluations   = 113
Number of inequality constraint Jacobian evaluations = 113
Number of Lagrangian Hessian evaluations             = 108
Total CPU secs in IPOPT (w/o function evaluations)   =    243.453
Total CPU secs in NLP function evaluations           =      5.795

EXIT: Optimal Solution Found.
